(set-info :smt-lib-version 2.6)
(set-logic QF_SLIA)
(set-info :source |
Generated by: Joel Day, Thorsten Ehlers, Mitja Kulczynski, Federico Mora, Florin Manea, Dirk Nowotka, Danny Poulsen, Zhengyang Lu
Application: Test WOORPJE
Target solver: WOORPJE
Publications: Day, J. D., Ehlers, T., Kulczynski, M., Manea, F., Nowotka, D., & Poulsen, D. B. (2019). On solving word equations using SAT. In RP 2019
Description: Enriches a system of 30 word equations by suitable linear constraints
|)
(set-info :license "https://creativecommons.org/licenses/by/4.0/")
(set-info :category "random")
(set-info :status unknown)

(declare-fun B () String)
(declare-fun F () String)
(declare-fun G () String)
(declare-fun J () String)
(declare-fun C () String)
(assert (= (str.++  "eabaacfcdeaefcaa" F "ebc")  (str.++  "eab" B J "ccdaecbebc") ))
(assert (= (str.++  "dfbfdfee" F "bbccba" C "b")  (str.++  "dfbf" G J "ffecceb") ))
(assert (= (str.++  "bfabcdbafbfdcafdbdbafcfaacde" F "eecaeeac")  (str.++  "bfabcdbafbfdcafdbdbafcfaacde" F "eecaeeac") ))
(assert (= (str.++  "bdfaccdadafcfeacbadfcbceaeedebfdfbafabdc" "")  (str.++  "bdfaccdadaf" F "cbadfcbceaeedebfdfbafabdc") ))
(assert (>=(* (str.len G) 10) 110))
(assert (<=(* (str.len B) 15) 3720))
(assert (>=(* (str.len J) 7) 112))
(assert (<=(* (str.len F) 13) 156))
(assert (>=(* (str.len C) 17) 187))
(assert (<=(* (str.len C) 20) 3420))
(check-sat)

(exit)
